(set-logic QF_UF)
(declare-fun A0 () Bool)
(declare-fun A2 () Bool)
(declare-fun A3 () Bool)
(declare-fun A5 () Bool)
(declare-fun A6 () Bool)
(declare-fun A7 () Bool)
(declare-fun A8 () Bool)
(declare-fun A9 () Bool)
(declare-fun A10 () Bool)
(declare-fun A11 () Bool)
(declare-fun A12 () Bool)
(declare-fun A13 () Bool)
(declare-fun A14 () Bool)
(declare-fun A15 () Bool)
(declare-fun A16 () Bool)
(declare-fun A17 () Bool)
(declare-fun A18 () Bool)
(declare-fun A19 () Bool)
(declare-fun A20 () Bool)
(declare-fun A21 () Bool)
(declare-fun A22 () Bool)
(declare-fun A23 () Bool)
(declare-fun A24 () Bool)
(assert (let ((.def_0 (not A20))) (let ((.def_1 (and .def_0 A6))) (let ((.def_2 (not .def_1))) (let ((.def_3 (or A21 A2))) (let ((.def_4 (and .def_3 .def_2))) (let ((.def_5 (not A9))) (let ((.def_6 (or .def_5 A17))) (let ((.def_7 (not .def_6))) (let ((.def_8 (not A8))) (let ((.def_9 (and .def_8 A0))) (let ((.def_10 (or .def_9 .def_7))) (let ((.def_11 (not .def_10))) (let ((.def_12 (or .def_11 .def_4))) (let ((.def_13 (= A14 A12))) (let ((.def_14 (not .def_13))) (let ((.def_15 (not A5))) (let ((.def_16 (or A3 .def_15))) (let ((.def_17 (or .def_16 .def_14))) (let ((.def_18 (not .def_17))) (let ((.def_19 (not A12))) (let ((.def_20 (or .def_19 A11))) (let ((.def_21 (not A18))) (let ((.def_22 (not A17))) (let ((.def_23 (or .def_22 .def_21))) (let ((.def_24 (not .def_23))) (let ((.def_25 (and .def_24 .def_20))) (let ((.def_26 (and .def_25 .def_18))) (let ((.def_27 (not .def_26))) (let ((.def_28 (= .def_27 .def_12))) (let ((.def_29 (not .def_28))) (let ((.def_30 (not A3))) (let ((.def_31 (not A0))) (let ((.def_32 (and .def_31 .def_30))) (let ((.def_33 (not A2))) (let ((.def_34 (and A15 .def_33))) (let ((.def_35 (not .def_34))) (let ((.def_36 (and .def_35 .def_32))) (let ((.def_37 (not A6))) (let ((.def_38 (and A3 .def_37))) (let ((.def_39 (= A18 .def_21))) (let ((.def_40 (and .def_39 .def_38))) (let ((.def_41 (or .def_40 .def_36))) (let ((.def_42 (not .def_41))) (let ((.def_43 (not A15))) (let ((.def_44 (= A6 .def_43))) (let ((.def_45 (not .def_44))) (let ((.def_46 (or .def_15 A15))) (let ((.def_47 (or .def_46 .def_45))) (let ((.def_48 (not .def_47))) (let ((.def_49 (not A11))) (let ((.def_50 (or .def_49 A10))) (let ((.def_51 (not A16))) (let ((.def_52 (and .def_51 .def_15))) (let ((.def_53 (not .def_52))) (let ((.def_54 (or .def_53 .def_50))) (let ((.def_55 (or .def_54 .def_48))) (let ((.def_56 (not .def_55))) (let ((.def_57 (and .def_56 .def_42))) (let ((.def_58 (or .def_57 .def_29))) (let ((.def_59 (not .def_58))) (let ((.def_60 (or .def_21 A19))) (let ((.def_61 (not .def_60))) (let ((.def_62 (or A10 A6))) (let ((.def_63 (not .def_62))) (let ((.def_64 (and .def_63 .def_61))) (let ((.def_65 (and .def_33 A11))) (let ((.def_66 (and A13 A6))) (let ((.def_67 (and .def_66 .def_65))) (let ((.def_68 (and .def_67 .def_64))) (let ((.def_69 (or A15 .def_22))) (let ((.def_70 (not .def_69))) (let ((.def_71 (not A14))) (let ((.def_72 (or A23 .def_71))) (let ((.def_73 (= .def_72 .def_70))) (let ((.def_74 (not A21))) (let ((.def_75 (and .def_74 A24))) (let ((.def_76 (not .def_75))) (let ((.def_77 (or .def_0 .def_21))) (let ((.def_78 (or .def_77 .def_76))) (let ((.def_79 (and .def_78 .def_73))) (let ((.def_80 (not .def_79))) (let ((.def_81 (and .def_80 .def_68))) (let ((.def_82 (not .def_81))) (let ((.def_83 (and A11 A11))) (let ((.def_84 (not .def_83))) (let ((.def_85 (and .def_51 A14))) (let ((.def_86 (or .def_85 .def_84))) (let ((.def_87 (not .def_86))) (let ((.def_88 (not A22))) (let ((.def_89 (and .def_51 .def_88))) (let ((.def_90 (and .def_89 .def_70))) (let ((.def_91 (not .def_90))) (let ((.def_92 (and .def_91 .def_87))) (let ((.def_93 (not .def_92))) (let ((.def_94 (and .def_0 .def_49))) (let ((.def_95 (not A7))) (let ((.def_96 (and A10 .def_95))) (let ((.def_97 (not .def_96))) (let ((.def_98 (= .def_97 .def_94))) (let ((.def_99 (or .def_88 .def_95))) (let ((.def_100 (not .def_99))) (let ((.def_101 (not A23))) (let ((.def_102 (and A17 .def_101))) (let ((.def_103 (or .def_102 .def_100))) (let ((.def_104 (and .def_103 .def_98))) (let ((.def_105 (not .def_104))) (let ((.def_106 (or .def_105 .def_93))) (let ((.def_107 (and .def_106 .def_82))) (let ((.def_108 (or .def_107 .def_59))) (let ((.def_109 (not .def_108))) .def_109)))))))))))))))))))))))))))))))))))))))))))))))))))))))))))))))))))))))))))))))))))))))))))))))))))))))))))))))
(check-sat)
